p gcnf 256 955 250
{0} 91 -81 0
{0} 17 -16 44 62 0
{0} -94 -89 -77 99 0
{0} -146 -139 147 0
{0} -241 238 0
{0} 87 -215 0
{0} 205 186 0
{0} -78 85 0
{0} 37 20 0
{0} -152 148 0
{0} 84 83 -85 0
{0} -157 75 0
{0} 41 -40 0
{0} -32 2 29 0
{0} -209 205 0
{0} -99 89 0
{0} 73 -97 0
{0} -138 127 0
{0} 139 -82 0
{0} -128 132 0
{0} 144 82 0
{0} 194 -256 0
{0} -168 167 0
{0} 169 -90 0
{0} -90 88 0
{0} 94 -98 0
{0} 132 -131 0
{0} 164 -75 82 0
{0} -221 -177 0
{0} -240 -239 -238 -237 241 0
{0} 75 74 103 -245 0
{0} -137 -133 -127 138 0
{0} 226 75 174 0
{0} -73 -171 172 0
{0} 166 -74 0
{0} -53 5 -52 0
{0} -35 -34 -17 0
{0} 167 74 0
{0} -131 -81 0
{0} 90 182 -191 0
{0} 242 75 0
{0} 29 -172 0
{0} -223 -182 0
{0} -43 42 -41 0
{0} -13 197 0
{0} -138 137 0
{0} 52 -51 0
{0} 158 74 0
{0} 88 -210 0
{0} 124 -98 0
{0} -130 81 0
{0} -197 195 0
{0} -161 229 0
{0} 154 74 -166 0
{0} -187 -186 0
{0} 75 -74 79 -244 0
{0} -55 -48 0
{0} 95 96 97 -73 0
{0} -241 239 0
{0} 248 -79 0
{0} -112 111 0
{0} 13 11 10 5 -12 0
{0} -118 80 0
{0} -196 -195 -193 197 0
{0} 134 81 0
{0} 90 189 -196 0
{0} -126 -75 0
{0} 35 33 -36 0
{0} 214 -212 0
{0} -112 107 0
{0} 80 95 96 97 150 -151 0
{0} -255 -254 -253 -252 256 0
{0} -186 80 0
{0} 26 25 -27 0
{0} -222 -189 0
{0} 199 -198 0
{0} 90 200 186 -211 0
{0} -70 -17 0
{0} 191 -90 0
{0} 156 -155 0
{0} 237 74 0
{0} 174 -173 180 0
{0} 219 221 0
{0} 50 -99 0
{0} 20 -147 0
{0} 64 -61 0
{0} 58 -54 0
{0} -63 -46 0
{0} -93 91 0
{0} 213 143 -75 0
{0} 70 69 68 67 -71 0
{0} -251 250 0
{0} 249 -103 0
{0} 37 19 0
{0} 131 130 -132 0
{0} -143 82 81 0
{0} 184 -177 0
{0} -179 178 0
{0} 239 -75 0
{0} 17 -16 48 49 0
{0} -82 227 0
{0} 119 -118 0
{0} 178 -98 0
{0} 181 -180 0
{0} 191 -182 0
{0} -56 -50 0
{0} -154 165 0
{0} 36 -35 0
{0} -245 -244 -243 -242 246 0
{0} -45 -44 0
{0} 176 -175 0
{0} 186 174 173 187 0
{0} 186 174 -173 -219 0
{0} 71 -69 0
{0} 95 96 97 180 182 -181 0
{0} 226 -75 -174 0
{0} 193 -194 0
{0} 114 -116 0
{0} -154 73 0
{0} 196 -189 0
{0} 78 90 -75 -74 -89 0
{0} 111 -98 0
{0} 108 -82 0
{0} -8 -3 0
{0} -14 12 0
{0} -179 176 0
{0} 95 96 97 -186 98 -195 0
{0} 149 81 0
{0} -158 -167 168 0
{0} 250 -74 0
{0} 238 75 0
{0} -42 4 0
{0} -75 -74 79 -252 0
{0} -200 -174 0
{0} -174 173 175 0
{0} 238 -74 0
{0} 165 -164 0
{0} 102 90 -75 74 -107 0
{0} 75 74 129 -255 0
{0} 213 -143 75 0
{0} -102 88 0
{0} -104 -82 0
{0} -3 209 0
{0} -69 -46 0
{0} -84 80 0
{0} 198 -174 173 0
{0} 115 90 75 -74 -120 0
{0} 212 -81 -74 0
{0} -226 -75 174 0
{0} -80 82 -81 118 0
{0} -63 -17 0
{0} -75 -74 129 -247 0
{0} 106 -105 0
{0} -125 124 0
{0} 228 74 81 0
{0} 4 3 -30 0
{0} -83 -81 0
{0} 89 75 0
{0} 252 74 0
{0} 17 16 48 70 0
{0} -206 199 0
{0} -209 208 0
{0} -163 -74 -81 0
{0} 17 16 46 63 0
{0} 15 16 3 0
{0} -80 82 81 -135 0
{0} -168 158 0
{0} -227 -226 225 0
{0} 90 177 -184 0
{0} -218 211 0
{0} -135 -134 136 0
{0} -206 203 0
{0} -138 133 0
{0} 80 82 -81 -108 0
{0} -228 74 -81 0
{0} 17 16 44 57 0
{0} 105 104 -106 0
{0} -206 204 0
{0} -40 39 0
{0} -186 223 0
{0} 240 -74 0
{0} 200 201 90 -173 -208 0
{0} -68 -44 0
{0} 64 -62 0
{0} -47 17 0
{0} -161 228 0
{0} -80 82 81 131 0
{0} -16 170 0
{0} -82 -81 -216 217 0
{0} -80 -82 -81 84 0
{0} 139 -140 0
{0} -11 192 0
{0} 71 -70 0
{0} 255 -75 0
{0} -140 -80 0
{0} -24 20 -23 0
{0} -251 249 0
{0} 133 -75 0
{0} -75 -74 -158 0
{0} 107 -90 0
{0} 46 -125 0
{0} -201 174 0
{0} -20 147 0
{0} -256 253 0
{0} 127 -129 0
{0} -246 242 0
{0} 85 -83 0
{0} -1 -3 0
{0} 58 -56 0
{0} 186 174 173 -220 0
{0} 164 163 -165 0
{0} -67 16 0
{0} 63 62 61 60 -64 0
{0} -17 -16 46 54 0
{0} -56 -17 0
{0} -75 -74 103 -237 0
{0} 151 -150 0
{0} 245 -75 0
{0} -111 -107 -101 112 0
{0} 157 -74 -167 0
{0} 255 -74 0
{0} 182 -246 0
{0} -48 138 0
{0} -136 135 0
{0} -204 -208 -205 -207 209 0
{0} 95 96 97 -174 173 98 -178 0
{0} 13 -197 0
{0} 36 -33 0
{0} 106 -104 0
{0} -72 -13 71 0
{0} -250 -249 -248 -247 251 0
{0} -34 20 19 0
{0} 140 82 -139 0
{0} 200 201 95 96 97 186 -173 -207 0
{0} 41 -38 0
{0} -75 74 79 -248 0
{0} 75 -74 129 -239 0
{0} -185 184 0
{0} -40 20 0
{0} 95 96 97 136 98 -137 0
{0} -33 -19 16 0
{0} -170 169 0
{0} -69 -17 0
{0} 75 -74 103 -249 0
{0} -145 144 0
{0} 203 -90 0
{0} 204 -90 0
{0} 161 90 168 -169 0
{0} 92 80 0
{0} 33 19 16 0
{0} 17 16 -39 0
{0} 247 -129 0
{0} -144 -214 215 0
{0} -84 81 0
{0} -55 -16 0
{0} 82 -227 0
{0} -125 114 0
{0} 248 -74 0
{0} -60 16 0
{0} 120 -75 0
{0} -187 -174 0
{0} -177 241 0
{0} -182 246 0
{0} -65 11 -64 0
{0} 245 -103 0
{0} 237 -103 0
{0} 237 75 0
{0} 227 226 225 0
{0} 77 -79 0
{0} -147 139 0
{0} -140 88 0
{0} -20 -19 -39 40 0
{0} 58 -55 0
{0} -26 17 20 0
{0} -82 -81 -144 0
{0} 200 201 95 96 97 -186 -205 0
{0} 141 -143 0
{0} 107 75 0
{0} 244 74 0
{0} -200 -173 0
{0} -115 88 0
{0} 160 -159 0
{0} -75 74 129 -243 0
{0} 80 82 81 117 0
{0} 169 -161 0
{0} -49 -17 0
{0} 52 -45 0
{0} -209 204 0
{0} 121 -82 0
{0} -92 -91 93 0
{0} -45 17 0
{0} 196 -90 0
{0} -130 -80 0
{0} 102 100 103 -101 0
{0} -246 243 0
{0} 154 75 -153 0
{0} 124 -123 0
{0} -6 7 0
{0} -51 -50 0
{0} -246 244 0
{0} -241 237 0
{0} 34 20 -19 0
{0} 211 -200 0
{0} -15 -16 3 0
{0} -170 166 0
{0} -112 101 0
{0} 22 17 4 0
{0} 195 186 0
{0} -169 -166 170 0
{0} 135 80 0
{0} -160 -153 162 0
{0} -206 205 0
{0} 128 90 75 74 -133 0
{0} -158 -156 159 0
{0} -104 81 0
{0} -15 16 -3 0
{0} -8 9 0
{0} -57 -16 0
{0} -8 -4 0
{0} 119 -117 0
{0} -109 -108 110 0
{0} -131 -82 0
{0} 48 -138 0
{0} -113 -75 0
{0} -126 73 0
{0} 160 -90 0
{0} 80 -86 -87 -88 140 0
{0} 137 -136 0
{0} -17 16 48 55 0
{0} 158 75 0
{0} -54 16 0
{0} 190 -98 0
{0} 200 201 95 96 97 186 198 -199 0
{0} 243 75 0
{0} 86 174 0
{0} 80 -82 -81 -134 0
{0} 166 -154 0
{0} -123 122 0
{0} 64 -60 0
{0} 188 -187 0
{0} 244 -75 0
{0} -229 75 -82 0
{0} -191 -190 -188 192 0
{0} -73 174 173 200 0
{0} 80 82 -81 104 0
{0} -197 193 0
{0} -69 16 0
{0} -51 -16 0
{0} -185 183 0
{0} -118 81 0
{0} -224 -74 -173 0
{0} -251 247 0
{0} -223 -189 0
{0} -126 -74 0
{0} -17 -16 50 67 0
{0} -192 190 0
{0} 214 -213 0
{0} -221 -182 0
{0} -62 16 0
{0} -86 -87 -88 -178 -176 179 0
{0} -222 -182 0
{0} 75 -74 116 -254 0
{0} -70 -16 0
{0} -256 254 0
{0} 11 10 5 -9 0
{0} -218 73 0
{0} -5 179 0
{0} 95 96 97 187 189 -188 0
{0} -165 -73 154 0
{0} 3 -209 0
{0} 86 173 0
{0} -172 171 0
{0} 71 -67 0
{0} -43 -42 41 0
{0} 247 74 0
{0} 247 75 0
{0} -28 29 0
{0} -198 174 173 0
{0} -76 73 0
{0} 252 -79 0
{0} -22 17 -4 0
{0} 189 -251 0
{0} 148 -140 0
{0} -136 134 0
{0} -99 77 0
{0} -83 82 0
{0} 239 -129 0
{0} 255 -129 0
{0} -17 16 46 47 0
{0} -172 73 0
{0} 95 96 97 174 -173 98 -183 0
{0} 163 -74 81 0
{0} -76 74 0
{0} 108 81 0
{0} 186 -174 173 -177 0
{0} 95 96 97 175 177 -176 0
{0} 64 -63 0
{0} -194 256 0
{0} -40 19 0
{0} 57 56 55 54 -58 0
{0} -180 173 0
{0} -200 73 0
{0} -185 181 0
{0} 193 -97 0
{0} 134 82 0
{0} 52 -47 0
{0} 155 75 -74 0
{0} 23 22 21 0
{0} -113 73 0
{0} 65 59 53 43 32 31 28 24 18 14 8 6 1 -66 0
{0} 111 -110 0
{0} 16 -170 0
{0} 17 -162 0
{0} -49 -48 0
{0} 144 81 0
{0} 95 96 97 123 98 -124 0
{0} -224 74 173 0
{0} 52 -49 0
{0} -42 3 0
{0} -17 16 44 68 0
{0} 203 -202 0
{0} 157 155 -156 0
{0} 204 -174 0
{0} -144 -149 150 0
{0} -105 -81 0
{0} -37 -36 38 0
{0} -63 -16 0
{0} 2 -218 0
{0} 128 126 129 -127 0
{0} -99 94 0
{0} -179 88 0
{0} -72 13 -71 0
{0} 140 81 -148 0
{0} 188 -97 0
{0} 107 -74 0
{0} 78 76 79 -77 0
{0} 22 -17 -4 0
{0} 23 -22 -21 0
{0} -33 19 -16 0
{0} -1 5 0
{0} -31 30 0
{0} -202 -174 173 0
{0} -62 -44 0
{0} -145 141 0
{0} -47 -16 0
{0} 198 174 -173 0
{0} -251 248 0
{0} -86 -87 -88 90 0
{0} -50 99 0
{0} -159 156 0
{0} -241 240 0
{0} -197 196 0
{0} 248 75 0
{0} -80 -82 81 105 0
{0} 169 -168 0
{0} 21 16 0
{0} -229 -75 82 0
{0} -102 106 0
{0} -86 -87 -88 -85 78 0
{0} 44 -112 0
{0} -4 206 0
{0} -56 16 0
{0} 132 -130 0
{0} 89 74 0
{0} -151 -148 152 0
{0} 224 74 -173 0
{0} 80 -82 -81 130 0
{0} 80 95 96 97 145 -146 0
{0} 95 96 97 186 194 -193 0
{0} 177 -241 0
{0} 229 75 82 0
{0} 81 -224 0
{0} -131 80 0
{0} -70 -48 0
{0} -105 80 0
{0} 101 -103 0
{0} -4 -3 42 0
{0} -222 -177 0
{0} -184 -183 -181 185 0
{0} 11 -192 0
{0} 15 -16 -3 0
{0} -100 -74 0
{0} -49 16 0
{0} 163 74 -81 0
{0} -18 -19 15 0
{0} 75 74 79 -240 0
{0} 229 -75 -82 0
{0} 161 90 159 -160 0
{0} -97 -210 0
{0} 228 -74 -81 0
{0} 35 34 -17 0
{0} -46 125 0
{0} 34 -20 19 0
{0} -17 162 0
{0} 115 113 116 -114 0
{0} -28 27 0
{0} 254 74 0
{0} 40 38 -41 0
{0} 249 74 0
{0} -86 -87 186 80 210 97 0
{0} -104 -80 0
{0} 220 222 0
{0} -117 -81 0
{0} 242 -116 0
{0} -47 -46 0
{0} -68 17 0
{0} -228 -74 81 0
{0} 10 -185 0
{0} -57 -44 0
{0} 250 -116 0
{0} 190 -173 0
{0} -17 -16 48 60 0
{0} -17 -16 44 45 0
{0} 127 -128 0
{0} 89 -90 0
{0} -122 -121 123 0
{0} 58 -57 0
{0} 242 74 0
{0} -93 92 0
{0} 160 -161 0
{0} 171 -161 0
{0} 253 -74 0
{0} -59 10 -58 0
{0} -67 17 0
{0} -62 -17 0
{0} 142 143 -141 0
{0} 216 -74 0
{0} 183 -98 0
{0} -256 255 0
{0} -84 82 0
{0} -164 75 82 0
{0} -75 74 103 -253 0
{0} 19 -152 0
{0} 17 -16 50 56 0
{0} -229 -228 161 0
{0} 80 82 81 -121 0
{0} 184 -90 0
{0} 17 16 50 51 0
{0} 186 -80 0
{0} -187 -173 0
{0} 77 -78 0
{0} 155 -75 74 0
{0} 148 -81 0
{0} 253 -103 0
{0} 35 -34 17 0
{0} 114 -115 0
{0} -25 -16 -19 0
{0} 5 -179 0
{0} 188 -189 0
{0} 151 -80 0
{0} -86 -87 -88 -106 102 0
{0} -110 108 0
{0} 4 -206 0
{0} -80 82 -81 -122 0
{0} -163 74 81 0
{0} 240 -79 0
{0} -26 -17 -20 0
{0} 216 -75 0
{0} -155 75 74 0
{0} 118 117 -119 0
{0} 90 174 173 -204 0
{0} 94 -93 0
{0} 95 96 97 93 98 -94 0
{0} 200 201 90 202 -203 0
{0} -130 82 0
{0} -75 74 116 -238 0
{0} -86 -87 -88 -132 128 0
{0} -65 -11 64 0
{0} 142 -81 -149 0
{0} 143 -82 81 0
{0} 72 66 0
{0} 243 -129 0
{0} 109 80 0
{0} 122 80 0
{0} -14 2 0
{0} 33 -19 -16 0
{0} -83 -80 0
{0} 120 74 0
{0} 95 96 186 80 210 -88 0
{0} -53 -5 52 0
{0} 250 -75 0
{0} -150 149 0
{0} -202 174 -173 0
{0} -128 88 0
{0} -105 82 0
{0} 10 5 -7 0
{0} -54 -46 0
{0} -57 -17 0
{0} 254 -75 0
{0} 39 -16 0
{0} 51 49 47 45 -52 0
{0} 75 74 116 -250 0
{0} -117 -80 0
{0} -175 174 0
{0} 80 -82 81 83 0
{0} 85 -84 0
{0} 151 -97 0
{0} -23 -22 21 0
{0} 87 -217 0
{0} -189 251 0
{0} 240 -75 0
{0} -124 -120 -114 125 0
{0} 253 75 0
{0} 80 -82 81 -91 0
{0} 245 -74 0
{0} -59 -10 58 0
{0} -144 -141 145 0
{0} -61 17 0
{0} 146 -80 0
{0} -226 75 -174 0
{0} 238 -116 0
{0} -223 -177 0
{0} 101 -102 0
{0} -51 -17 0
{0} -125 120 0
{0} -162 153 0
{0} -29 172 0
{0} -115 119 0
{0} 208 173 0
{0} -192 191 0
{0} 90 161 -171 0
{0} -18 19 -15 0
{0} -16 -3 -21 0
{0} -159 158 0
{0} -10 185 0
{0} 202 -174 -173 0
{0} -225 173 0
{0} -54 17 0
{0} 249 -75 0
{0} 133 -90 0
{0} -32 -2 -29 0
{0} 207 173 0
{0} 71 -68 0
{0} -80 -82 81 -109 0
{0} -22 -17 4 0
{0} 244 -79 0
{0} 224 -74 173 0
{0} 133 -74 0
{0} -162 160 0
{0} 165 -163 0
{0} -60 17 0
{0} 39 -17 0
{0} -152 151 0
{0} 153 -154 0
{0} -67 -50 0
{0} -23 22 -21 0
{0} -2 218 0
{0} -19 152 0
{0} -150 144 0
{0} -76 75 0
{0} 252 75 0
{0} -24 -20 23 0
{0} 254 -116 0
{0} -78 88 0
{0} -68 -16 0
{0} 146 -97 0
{0} 164 75 -82 0
{0} 21 3 0
{0} 121 -81 0
{0} -80 -82 -81 -92 0
{0} -55 17 0
{0} -100 75 0
{0} -204 -203 -205 -199 206 0
{0} -44 112 0
{0} 239 74 0
{0} -38 36 0
{0} -81 224 0
{0} -86 -87 -88 -119 115 0
{0} -117 -82 0
{0} 153 -75 0
{0} 143 82 -81 0
{0} -61 -50 0
{0} -118 -82 0
{0} 181 -182 0
{0} 137 -98 0
{0} -192 188 0
{0} -100 73 0
{0} 195 -98 0
{0} 17 -16 46 69 0
{0} -17 16 50 61 0
{0} 193 -186 0
{0} -73 -211 218 0
{0} -110 109 0
{0} -60 -48 0
{0} -31 2 0
{0} 243 -74 0
{0} 190 -174 0
{0} -164 -75 -82 0
{0} -61 -16 0
{0} 120 -90 0
{0} -75 -74 116 -242 0
{0} -256 252 0
{0} -246 245 0
{0} -123 121 0
{0} -25 16 19 0
{0} -45 16 0
{0} -6 -4 0
{0} -35 34 17 0
{0} 95 96 97 186 174 173 98 -190 0
{0} -209 207 0
{0} -113 74 0
{0} -147 146 0
{0} 146 -145 0
{0} 95 96 97 110 98 -111 0
{0} 91 82 0
{1} 43 -42 -41 0
{2} -96 236 0
{3} 151 -95 0
{4} -233 232 0
{5} 120 -115 0
{6} 183 173 0
{7} 111 -97 0
{8} 66 -43 0
{9} -95 174 0
{10} -115 86 0
{11} -212 81 -74 0
{12} 43 42 41 0
{13} 25 -16 19 0
{14} 231 -81 74 0
{15} 111 -96 0
{16} 219 -186 0
{17} -140 87 0
{18} 234 -233 0
{19} 107 -102 0
{20} 26 -17 20 0
{21} 211 -186 0
{22} 75 74 -216 0
{23} 181 -97 0
{24} -142 81 0
{25} 199 -96 0
{26} 66 -14 0
{27} -213 143 75 0
{28} -225 74 0
{29} 27 -25 0
{30} 188 -96 0
{31} -86 -87 -88 -174 -173 201 0
{32} 141 -142 0
{33} 92 82 0
{34} 94 -97 0
{35} 156 -157 0
{36} 25 16 -19 0
{37} -78 87 0
{38} -198 -174 -173 0
{39} 176 -96 0
{40} -73 -75 -74 76 0
{41} 220 -174 0
{42} 178 -173 0
{43} 207 -200 0
{44} -74 -173 225 0
{45} 101 -100 0
{46} 12 -13 0
{47} 65 -11 -64 0
{48} -34 -20 -19 0
{49} 205 -95 0
{50} 27 -26 0
{51} 178 174 0
{52} 183 -96 0
{53} 66 -53 0
{54} 89 -78 0
{55} 53 -5 -52 0
{56} -223 -194 0
{57} 88 -95 0
{58} -230 -173 0
{59} -128 87 0
{60} 73 -95 0
{61} -97 -80 0
{62} 190 -96 0
{63} 219 173 0
{64} -215 144 0
{65} 181 -95 0
{66} 9 -5 0
{67} -231 -81 -74 0
{68} -179 87 0
{69} 176 -177 0
{70} -217 82 0
{71} 207 -96 0
{72} 18 -19 -15 0
{73} -179 86 0
{74} -235 -74 0
{75} 88 -96 0
{76} 66 -31 0
{77} -38 37 0
{78} -140 86 0
{79} -227 226 -225 0
{80} 133 -128 0
{81} 208 -200 0
{82} 190 -186 0
{83} -96 234 0
{84} 231 81 -74 0
{85} -82 -81 142 0
{86} -90 87 0
{87} 199 -201 0
{88} 12 -11 0
{89} 202 174 173 0
{90} 66 -65 0
{91} 53 5 52 0
{92} 205 -97 0
{93} 18 19 15 0
{94} 9 -11 0
{95} 199 -95 0
{96} -201 86 0
{97} 124 -96 0
{98} -233 231 0
{99} 24 -20 -23 0
{100} 219 -174 0
{101} 183 -174 0
{102} -215 214 0
{103} 95 -96 0
{104} 176 -95 0
{105} 236 -235 0
{106} 178 -97 0
{107} -174 -173 -86 0
{108} 203 -201 0
{109} -155 -75 -74 0
{110} -230 -174 0
{111} 134 -80 0
{112} -180 -174 0
{113} -201 173 0
{114} 109 -81 0
{115} -102 86 0
{116} 122 81 0
{117} 212 81 74 0
{118} 146 -96 0
{119} 12 -5 0
{120} 72 13 71 0
{121} 236 81 0
{122} 171 -90 0
{123} -217 81 0
{124} 167 -157 0
{125} 181 -96 0
{126} 199 -97 0
{127} -78 86 0
{128} 66 -28 0
{129} 232 143 75 0
{130} -217 216 0
{131} 217 215 -87 0
{132} 207 -97 0
{133} 195 -96 0
{134} -232 143 -75 0
{135} 30 -4 0
{136} 88 -80 0
{137} 66 -59 0
{138} -8 -2 0
{139} 205 -96 0
{140} 91 -80 0
{141} 24 20 23 0
{142} 66 -24 0
{143} 199 -200 0
{144} 183 -95 0
{145} -201 87 0
{146} 75 74 235 0
{147} 199 -186 0
{148} 178 -95 0
{149} 211 -90 0
{150} -128 86 0
{151} 73 -96 0
{152} -97 86 0
{153} 66 -6 0
{154} -201 88 0
{155} 151 -96 0
{156} -174 -173 95 0
{157} -75 -74 157 0
{158} 137 -95 0
{159} -212 -81 74 0
{160} 72 -13 -71 0
{161} 66 -8 0
{162} 188 -95 0
{163} 207 -186 0
{164} -73 75 -74 113 0
{165} 193 -95 0
{166} -235 -75 0
{167} 213 212 -214 0
{168} -143 -82 -81 0
{169} 227 -226 -225 0
{170} -142 82 0
{171} -97 -186 0
{172} 121 -80 0
{173} 135 -82 0
{174} 88 -186 0
{175} -95 173 0
{176} 203 -200 0
{177} -175 -173 0
{178} 65 11 64 0
{179} 146 -95 0
{180} 59 -10 -58 0
{181} -232 -143 75 0
{182} -90 86 0
{183} 7 -10 0
{184} -6 -2 0
{185} -232 -231 233 0
{186} 92 81 0
{187} -20 -19 -37 0
{188} 94 -96 0
{189} -6 3 0
{190} 190 -95 0
{191} 127 -126 0
{192} 124 -95 0
{193} 208 -201 0
{194} 149 -142 0
{195} 66 -18 0
{196} 108 -80 0
{197} -73 -75 74 100 0
{198} 7 -5 0
{199} 142 233 -234 0
{200} 207 -201 0
{201} 193 -96 0
{202} 94 -95 0
{203} 205 -201 0
{204} -95 96 0
{205} -186 230 0
{206} 176 -97 0
{207} 195 -97 0
{208} 32 -2 29 0
{209} 205 -200 0
{210} 32 2 -29 0
{211} -73 75 74 126 0
{212} 135 -81 0
{213} -231 81 74 0
{214} 137 -97 0
{215} 183 -97 0
{216} -102 87 0
{217} 178 -96 0
{218} -236 -234 96 0
{219} 232 -143 -75 0
{220} 111 -95 0
{221} 30 -3 0
{222} -1 -2 0
{223} -157 74 0
{224} 190 -97 0
{225} 59 10 58 0
{226} 220 -173 0
{227} -115 87 0
{228} -82 -81 235 -236 0
{229} -97 87 0
{230} 77 -76 0
{231} 208 -90 0
{232} 114 -113 0
{233} 66 -1 0
{234} 207 -95 0
{235} 204 -173 0
{236} 66 -32 0
{237} 236 82 0
{238} -213 -143 -75 0
{239} 234 -142 0
{240} 137 -96 0
{241} 124 -97 0
{242} 122 -82 0
{243} 109 82 0
{244} 9 -10 0
{245} 26 17 -20 0
{246} -1 4 0
{247} 12 -10 0
{248} -80 161 0
{249} 195 -95 0
{250} 220 -186 0
